<number of tasks>
20

<cycle time>
1000

<order strength>
0,189


<task times>
1 537
2 540
3 472
4 512
5 463
6 501
7 414
8 394
9 573
10 573
11 327
12 450
13 443
14 517
15 645
16 434
17 616
18 532
19 541
20 435

<precedence relations>
1,7
2,5
2,8
2,9
2,10
3,6
5,11
6,12
7,13
11,15
12,14
13,16
13,17
14,19
15,18
16,20

<end>
